c status 153 1469396597657
c status 110 1469396597680
c status 108 1469396597848
c status 107 1469396598319
c status 106 1469396598644
c status 105 1469396600489
c status 104 1469396614462
c status 103 1469396796982
s td 141 103 250
b 1 99 62 14
b 2 64 151 109
b 3 242 230 195
b 4 73 76 131 123 195 32
b 5 30 76 128 167 148 197 211 7 155
b 6 76 12 128 167 131 148 182 197 43 211 123 7 155 195 32 89 79
b 7 12 128 117 18 209 167 174 131 148 182 197 43 211 222 123 7 155 195 91 32 89 79
b 8 82 108 167 8
b 9 108 13 128 216 167 20 208 200 168 8
b 10 237 13 208 77 145 8
b 11 13 34 181 128 164 216 167 20 208 77 145 182 200 168 8
b 12 34 181 128 164 15 216 167 115 20 208 77 145 182 200 250 168 227 38 132 79 8
b 13 152 75 104 106 91 89
b 14 75 84 104 207 116 203 106 91 89
b 15 84 104 181 207 72 59 101 116 203 165 106 91 56 89
b 16 118 104 5 149 136 20 197 222
b 17 35 104 117 203
b 18 104 181 207 72 5 59 117 18 101 116 203 149 136 165 20 110 197 222 106 150 91 56 89
b 19 181 207 128 72 5 59 164 58 15 117 18 216 167 101 65 116 113 203 149 115 136 165 20 110 208 77 145 182 197 222 106 200 250 168 150 227 91 38 56 89 132 79 8
b 20 17 230 128 58 117 100 158 93 29
b 21 230 47 128 58 117 100 158 93 29 7 227 195
b 22 47 134 128 59 58 117 113 100 158 126 93 29 241 147 7 155 227 195
b 23 134 207 128 247 72 59 58 117 244 113 136 100 245 158 126 93 29 241 147 14 7 155 227 195 78
b 24 202 239 128 5 77 219 140
b 25 71 239 213 105 7
b 26 239 97 128 5 216 213 77 145 133 69 105 219 140 7 229
b 27 97 207 128 247 5 216 101 213 77 145 133 69 105 219 140 7 195 229 79
b 28 161 207 15 1 143 4 123
b 29 199 175 100 221
b 30 175 103 15 213 218 100 245 221 46
b 31 103 128 5 15 216 213 218 100 245 20 221 46
b 32 96 128 186 149 14 155
b 33 240 128 18 209 220 140 187
b 34 207 128 247 72 5 59 164 58 15 117 18 216 167 101 65 244 116 213 113 1 203 149 115 136 165 100 245 158 126 20 110 208 77 143 145 182 197 93 29 241 222 133 106 147 200 4 250 69 123 105 14 168 219 150 36 140 7 155 227 195 91 38 229 78 56 89 132 79 8
b 35 128 247 72 186 5 59 164 58 15 117 18 216 209 167 101 65 244 116 213 113 1 203 149 115 218 136 165 9 100 245 158 174 126 20 110 208 77 131 143 221 145 148 182 197 185 43 93 29 241 211 222 133 106 147 200 4 250 69 123 105 14 220 168 219 150 36 140 7 155 227 195 91 187 38 229 78 32 46 56 89 132 79 8
b 36 2 214 58 77 197 80 229
b 37 236 67 101 244 165 145 133 69
b 38 191 114 101 158 200 32
b 39 114 120 164 58 101 158 174 222 200 7 32
b 40 120 180 72 164 58 246 101 115 158 174 211 222 200 7 32
b 41 180 156 226 247 72 164 58 201 246 101 115 158 174 211 222 200 7 32
b 42 156 198 226 247 72 164 58 201 246 92 101 115 158 174 223 211 222 200 7 229 32 132
b 43 198 67 57 226 247 72 164 58 201 246 92 101 116 40 115 158 174 144 223 211 222 200 105 7 227 229 32 132
b 44 67 70 57 226 94 214 247 72 164 58 15 201 246 92 101 244 116 40 115 165 158 174 144 77 221 145 223 211 222 133 200 69 105 80 7 227 91 229 32 132
b 45 70 57 226 94 214 247 72 164 58 15 201 246 92 101 244 116 40 115 136 165 158 174 144 77 143 221 145 223 211 222 133 200 69 123 105 80 7 227 91 229 11 32 132
b 46 90 94 216 115 245 221 123 95 56
b 47 129 189 57 226 5 127 166 244 137 174 200 89
b 48 189 68 57 226 5 18 127 166 244 137 174 182 200 227 89
b 49 111 68 226 183
b 50 68 184 57 226 183 247 5 15 18 127 166 244 137 174 182 200 227 89
b 51 184 57 226 94 183 247 5 15 18 127 166 244 245 137 174 182 200 168 80 227 89
b 52 169 41 72 5 246 131 223 80
b 53 41 16 57 183 214 247 72 5 246 149 136 131 223 194 133 106 80
b 54 16 57 226 183 214 247 72 186 5 246 149 136 131 223 194 133 106 220 168 80
b 55 66 57 186 145 79
b 56 57 226 94 183 214 247 72 186 5 164 58 15 18 127 201 246 92 166 101 244 116 149 40 115 136 165 245 158 137 174 144 77 131 143 221 145 182 223 125 194 211 222 133 106 154 200 69 123 105 220 168 80 7 155 227 91 229 11 74 32 46 89 132 79
b 57 226 94 183 214 247 72 186 5 59 164 58 15 18 127 201 246 92 166 101 65 244 116 113 149 40 115 163 136 165 245 158 137 174 144 77 131 143 221 145 182 223 125 194 211 222 133 106 154 200 69 123 105 220 168 80 7 155 227 91 229 11 74 32 46 89 132 79
b 58 94 183 214 247 72 186 5 59 164 58 15 18 216 127 201 246 92 166 101 65 244 116 113 149 40 115 163 136 165 245 158 137 174 144 77 131 143 221 145 182 223 125 194 93 211 222 133 106 154 200 69 123 105 220 168 80 7 155 227 91 95 229 11 74 32 46 56 89 132 79
b 59 25 27 183 1 126 211 140 195 56 79
b 60 27 210 183 1 9 158 126 110 125 211 106 140 195 56 79
b 61 210 243 183 58 246 1 179 9 245 158 126 110 131 125 211 106 140 195 56 79
b 62 243 235 183 214 59 58 246 1 179 9 245 158 126 110 131 125 211 106 140 195 56 79
b 63 121 235 59 117 40 163 145
b 64 235 157 183 214 59 58 117 127 246 1 179 40 163 9 245 158 126 110 131 145 125 211 106 140 195 56 79
b 65 157 183 214 5 59 58 117 127 201 246 167 1 179 40 115 163 9 245 158 126 110 131 145 125 211 106 140 195 56 79
b 66 183 214 247 72 186 5 59 164 58 15 117 18 216 127 201 246 92 167 166 101 65 244 116 113 1 179 149 40 115 163 136 165 9 245 158 137 174 126 110 144 77 131 143 221 145 182 223 125 194 93 211 222 133 106 154 200 69 123 105 220 168 80 140 7 155 227 195 91 95 229 11 74 32 46 56 89 132 79
b 67 214 247 72 186 5 59 164 58 15 117 18 216 127 201 246 92 167 166 101 65 244 116 113 1 179 149 40 115 163 136 165 9 245 158 137 174 126 110 144 77 131 143 221 145 182 197 223 125 194 93 211 222 133 106 154 159 200 69 123 105 220 168 80 140 7 155 227 195 91 95 229 11 74 32 46 56 89 132 79 8
b 68 19 59 148 132
b 69 247 72 186 5 59 164 58 15 117 18 216 127 201 246 92 209 167 166 101 65 244 116 213 113 1 179 203 149 40 115 218 163 136 165 9 100 245 158 137 174 126 20 110 208 144 77 131 143 221 145 148 182 197 185 223 43 125 194 93 29 241 211 222 133 106 154 159 147 200 4 250 69 123 105 14 220 168 219 150 36 80 140 7 155 227 195 91 187 38 95 229 78 11 74 32 46 56 89 132 79 8
b 70 72 186 5 59 164 58 15 117 18 216 127 28 201 246 92 209 167 166 101 65 244 116 213 113 1 179 203 149 40 115 218 163 136 165 9 100 245 158 137 174 126 20 110 208 144 77 131 143 221 145 148 182 197 185 223 43 125 194 93 29 241 211 222 133 106 154 159 147 200 4 250 69 123 105 14 220 168 219 150 36 80 140 7 155 227 195 91 187 38 95 229 78 11 74 32 46 56 89 132 79 8
b 71 58 15 117 18 216 127 28 201 246 92 209 167 166 61 101 65 244 116 213 113 1 179 203 149 40 33 115 218 163 136 165 9 100 245 158 137 174 126 20 110 208 144 77 131 143 221 145 148 182 197 185 223 43 125 194 93 29 241 211 222 133 106 154 159 147 200 4 250 69 123 105 14 220 168 219 150 36 80 140 7 155 227 195 91 187 38 95 229 78 11 74 32 46 56 89 132 79 8
b 72 15 117 18 216 127 28 201 246 92 209 167 166 61 101 65 244 116 213 113 1 179 203 149 40 33 115 218 163 136 165 9 100 245 158 137 174 126 20 110 208 144 77 131 143 221 145 148 182 197 185 223 43 125 54 194 93 29 241 211 222 133 106 154 159 147 200 4 250 69 123 105 14 220 168 219 150 36 80 140 7 155 227 195 91 187 38 95 229 78 11 74 32 46 56 89 132 79 8
b 73 117 18 216 127 28 201 246 92 209 167 166 61 101 65 244 116 213 113 1 179 203 149 40 33 115 218 163 136 165 9 100 245 158 137 174 126 20 110 208 144 77 131 143 221 145 148 182 197 185 223 43 125 54 194 93 29 241 211 222 133 106 154 159 147 200 4 250 69 123 105 14 220 168 219 150 36 80 140 7 155 227 195 91 187 38 95 229 78 11 74 231 32 46 56 89 132 79 8
b 74 18 216 127 28 201 246 92 209 167 166 61 101 65 244 116 213 113 1 179 203 149 40 33 115 218 163 136 165 9 100 245 158 137 174 126 20 110 208 144 77 131 143 221 145 148 182 197 185 223 43 125 54 194 93 29 241 211 222 133 106 154 159 147 200 4 250 69 123 105 14 220 168 219 150 36 80 140 7 155 227 195 91 187 38 95 229 78 11 74 231 32 81 46 56 89 132 79 8
b 75 26 10 165 100 137 11
b 76 146 224 192 212 135 50 1 165 77 131 197 140 187
b 77 224 228 192 212 135 50 209 1 136 165 100 126 77 131 197 43 140 187
b 78 228 249 192 212 135 50 28 209 1 136 165 100 126 77 131 197 43 194 140 187
b 79 249 177 10 192 212 135 141 50 28 209 1 136 165 100 126 110 77 131 197 43 194 219 140 187
b 80 178 83 10 135 216 105 140
b 81 139 170 116 54 123
b 82 170 206 116 54 123 155
b 83 206 83 212 188 116 137 43 54 123 36 80 155
b 84 83 86 10 6 212 135 188 44 216 116 165 137 43 54 194 123 105 150 36 80 140 155 187
b 85 86 177 10 6 212 135 188 44 216 116 33 136 165 137 43 54 194 69 123 105 150 36 80 140 155 187 46
b 86 233 51 10 48 115 9 106 123 14 219
b 87 51 190 10 162 48 201 116 115 9 148 106 123 14 219
b 88 190 55 10 162 135 48 28 201 116 1 115 9 174 148 125 211 106 123 14 219 91 81 46 79
b 89 151 109 6 115 182 227 132
b 90 109 173 6 212 60 216 201 115 182 159 36 227 231 132
b 91 173 55 6 212 60 216 201 166 115 182 43 159 36 227 231 132
b 92 55 171 10 6 162 212 135 188 60 48 216 28 201 166 65 116 1 115 9 174 148 182 43 125 211 106 159 123 14 219 36 227 195 91 231 81 46 132 79
b 93 171 177 10 6 162 212 135 188 60 48 44 216 28 201 166 65 116 1 115 9 174 148 182 43 125 211 106 159 123 14 219 36 227 195 91 78 231 81 46 132 79
b 94 177 10 6 192 162 212 135 188 141 60 48 50 44 216 28 201 209 166 65 116 1 203 33 115 136 165 9 100 137 174 126 110 77 131 148 182 197 43 125 54 194 211 106 159 69 123 105 14 219 150 36 80 140 155 227 195 91 187 78 231 81 46 56 132 79
b 95 10 6 192 122 162 212 135 188 141 60 48 50 44 216 28 201 209 166 65 116 1 203 33 115 136 165 9 100 137 174 126 110 77 131 148 182 197 43 125 54 194 211 106 159 69 123 105 14 219 150 36 80 140 155 227 195 91 187 78 11 231 81 46 56 132 79
b 96 238 98 218 221 125 200 150 227
b 97 234 98 192 162 48 245 133
b 98 98 21 6 192 122 162 60 48 218 245 221 125 133 200 150 227
b 99 62 21 14 227
b 100 21 217 6 192 122 162 176 60 48 218 245 77 221 125 133 200 14 150 227 79 8
b 101 217 6 192 122 162 188 176 60 48 244 218 245 77 131 221 125 241 133 200 14 150 227 11 79 8
b 102 6 192 122 162 212 135 188 176 141 60 48 50 44 216 28 201 209 167 166 65 244 116 1 203 33 115 218 136 165 9 100 245 137 174 126 110 77 131 221 148 182 197 43 125 54 194 241 211 133 106 159 200 69 123 105 14 219 150 36 80 140 155 227 195 91 187 78 11 74 231 81 46 56 132 79 8
b 103 193 196 122 20 77 54 140
b 104 138 196 48 154 219 78
b 105 196 22 119 204 205 122 48 20 77 54 154 168 219 140 78
b 106 22 23 119 204 205 122 188 60 48 61 20 77 54 154 168 219 36 140 38 78
b 107 23 107 119 204 205 122 188 60 48 61 20 208 77 54 133 154 168 219 36 140 187 38 78
b 108 88 153 142 205 135 188 44 28 168
b 109 153 124 142 119 205 212 135 188 176 44 28 203 158 185 168 91 89
b 110 124 3 142 119 205 192 212 135 188 176 44 127 28 166 203 158 197 185 93 154 4 168 227 91 187 89 8
b 111 3 142 107 119 205 192 212 135 188 176 141 44 127 28 167 166 61 203 33 163 136 245 158 197 185 93 222 154 4 168 227 91 187 89 132 8
b 112 42 215 142 61 213 182 185 125
b 113 215 142 107 61 213 137 126 182 185 125 187
b 114 142 107 119 205 192 212 135 188 176 141 44 127 28 92 167 166 61 213 203 33 163 136 245 158 137 126 182 197 185 125 93 222 154 4 250 168 227 91 187 89 132 8
b 115 107 119 204 205 192 122 212 135 188 176 141 60 48 44 127 28 92 167 166 61 213 203 33 163 136 245 158 137 126 20 208 77 131 182 197 185 125 54 93 222 133 154 4 250 168 219 36 140 227 91 187 38 78 89 132 8
b 116 37 248 122 1 115 158 222 105 14 140
b 117 52 172 204 216 61 110 143 29 159 7
b 118 53 39 203 163 245 126 11 231
b 119 39 102 162 28 203 33 163 245 126 143 148 220 11 231 8
b 120 102 87 162 216 28 203 33 163 165 245 126 143 148 220 11 74 231 89 8
b 121 87 172 162 216 28 203 33 163 165 245 126 143 145 148 14 220 80 11 74 231 89 8
b 122 172 248 204 162 216 28 61 244 203 33 163 165 245 126 110 143 145 148 223 29 159 14 220 80 7 195 11 74 231 89 8
b 123 160 232 162 166 245 4 123 187
b 124 232 248 162 135 188 127 166 245 185 159 4 123 187 89
b 125 248 225 204 205 122 162 135 188 176 216 127 28 166 61 244 1 203 40 33 115 163 165 245 158 126 110 143 145 148 185 223 29 222 159 4 123 105 14 220 80 140 7 195 187 11 74 231 89 8
b 126 225 31 204 205 122 162 135 188 176 216 127 28 166 61 244 1 203 40 33 115 163 165 245 158 126 110 143 145 148 185 223 29 222 159 147 4 123 105 14 220 80 140 7 195 187 95 11 74 231 32 89 8
b 127 31 204 205 122 162 135 188 176 216 127 28 166 61 244 113 1 203 40 33 115 163 165 245 158 126 20 110 143 145 148 185 223 29 222 159 147 4 123 105 14 220 80 140 7 227 195 91 187 95 11 74 231 32 89 8
b 128 63 205 28 105
b 129 204 205 192 122 162 212 135 188 176 141 60 48 50 44 216 127 28 92 209 167 166 61 244 213 113 1 203 40 33 115 163 136 165 245 158 137 126 20 110 208 77 131 143 145 148 182 197 185 223 125 54 93 29 222 133 154 159 147 4 250 123 105 14 220 168 219 36 80 140 7 227 195 91 187 38 95 78 11 74 231 32 89 132 8
b 130 205 192 122 162 212 135 188 176 141 60 48 50 44 216 127 28 92 209 167 166 61 244 213 113 1 203 40 33 115 163 136 165 245 158 137 126 20 110 208 77 131 143 145 148 182 197 185 223 125 54 93 29 211 222 133 154 159 147 4 250 123 105 14 220 168 219 36 80 140 7 227 195 91 187 38 95 78 11 74 231 32 89 132 8
b 131 49 135 101 244 93 250
b 132 130 60 203 149 218 208 43 14 187
b 133 85 50 145 148 29 36 155 229
b 134 192 122 162 212 135 188 176 141 60 48 50 44 216 127 28 201 92 209 167 166 61 65 244 116 213 113 1 203 40 33 115 218 163 136 165 9 100 245 158 137 174 126 20 110 208 77 131 143 221 145 148 182 197 185 223 43 125 54 194 93 29 241 211 222 133 106 154 159 147 200 4 250 69 123 105 14 220 168 219 150 36 80 140 7 155 227 195 91 187 38 95 78 11 74 231 32 81 46 56 89 132 79 8
b 135 212 135 188 176 141 60 48 50 44 216 127 28 201 92 209 167 166 61 101 65 244 116 213 113 1 203 149 40 33 115 218 163 136 165 9 100 245 158 137 174 126 20 110 208 77 131 143 221 145 148 182 197 185 223 43 125 54 194 93 29 241 211 222 133 106 154 159 147 200 4 250 69 123 105 14 220 168 219 150 36 80 140 7 155 227 195 91 187 38 95 78 11 74 231 32 81 46 56 89 132 79 8
b 136 176 141 60 48 50 44 216 127 28 201 92 209 167 166 61 101 65 244 116 213 113 1 203 149 40 33 115 218 163 136 165 9 100 245 158 137 174 126 20 110 208 144 77 131 143 221 145 148 182 197 185 223 43 125 54 194 93 29 241 211 222 133 106 154 159 147 200 4 250 69 123 105 14 220 168 219 150 36 80 140 7 155 227 195 91 187 38 95 78 11 74 231 32 81 46 56 89 132 79 8
b 137 141 60 48 50 44 216 127 28 201 246 92 209 167 166 61 101 65 244 116 213 113 1 203 149 40 33 115 218 163 136 165 9 100 245 158 137 174 126 20 110 208 144 77 131 143 221 145 148 182 197 185 223 43 125 54 194 93 29 241 211 222 133 106 154 159 147 200 4 250 69 123 105 14 220 168 219 150 36 80 140 7 155 227 195 91 187 38 95 78 11 74 231 32 81 46 56 89 132 79 8
b 138 50 44 216 127 28 201 246 92 209 167 166 61 101 65 244 116 213 113 1 179 203 149 40 33 115 218 163 136 165 9 100 245 158 137 174 126 20 110 208 144 77 131 143 221 145 148 182 197 185 223 43 125 54 194 93 29 241 211 222 133 106 154 159 147 200 4 250 69 123 105 14 220 168 219 150 36 80 140 7 155 227 195 91 187 38 95 229 78 11 74 231 32 81 46 56 89 132 79 8
b 139 45 126 154 46
b 140 24 179 159 123 229
b 141 112 65 115 174 126
1 99
99 100
100 101
101 102
102 134
134 135
135 136
136 137
137 138
138 74
74 73
73 72
72 71
71 70
70 69
134 130
130 129
69 35
69 67
67 66
66 58
35 34
58 57
102 95
95 94
57 56
129 115
129 127
127 126
126 125
34 19
56 45
115 114
94 93
45 44
93 92
114 111
125 122
66 65
44 43
94 85
111 110
65 64
34 23
94 79
92 88
115 107
19 18
85 84
35 7
122 121
43 42
64 62
56 51
19 12
62 61
56 54
79 78
107 106
34 27
121 120
78 77
51 50
23 22
42 41
54 53
110 109
7 6
100 98
92 91
12 11
61 60
27 26
106 105
120 119
41 40
50 48
91 90
125 124
88 87
18 15
77 76
48 47
22 21
35 31
84 83
40 39
114 113
11 9
60 59
87 86
125 116
122 117
6 5
21 20
15 14
58 46
135 132
31 30
109 108
98 96
119 118
44 37
124 123
138 133
113 112
18 16
53 52
98 97
26 24
105 103
35 33
67 36
34 28
64 63
90 89
84 80
6 4
11 10
83 82
39 38
105 104
14 13
35 32
135 131
95 75
73 140
72 141
26 25
56 55
82 81
71 139
70 68
30 29
9 8
130 128
50 49
18 17
21 3
89 2
